50
500
398
393
386
385
383
381
376
372
370
366
346
342
337
319
298
296
282
280
277
275
274
272
268
266
262
254
247
245
243
236
227
215
214
204
202
191
177
163
154
153
153
153
149
142
137
126
125
120
117
106
